\ Model master model
\ LP format - for model browsing. Use MPS format to capture full model detail.
Minimize
  0.5 L + 0.5 omega
Subject To
 epigraph[0]: 2364.163013295733 x[0,1] + 1744.493606848849 x[0,2] - L <= 0
 epigraph[1]: 2713.504236404486 x[1,0] + 1231.827487106873 x[1,2] - L <= 0
 epigraph[2]: 1997.454209811932 x[2,0] + 1228.865227566858 x[2,1] - L <= 0
 p: y[0] + y[1] + y[2] = 1
 x<y[0,0]: x[0,0] - y[0] <= 0
 x<y[0,1]: x[0,1] - y[1] <= 0
 x<y[0,2]: x[0,2] - y[2] <= 0
 x<y[1,0]: x[1,0] - y[0] <= 0
 x<y[1,1]: x[1,1] - y[1] <= 0
 x<y[1,2]: x[1,2] - y[2] <= 0
 x<y[2,0]: x[2,0] - y[0] <= 0
 x<y[2,1]: x[2,1] - y[1] <= 0
 x<y[2,2]: x[2,2] - y[2] <= 0
 sumx[0]: x[0,0] + x[0,1] + x[0,2] = 1
 sumx[1]: x[1,0] + x[1,1] + x[1,2] = 1
 sumx[2]: x[2,0] + x[2,1] + x[2,2] = 1
 R16: 126.2271251667421 y[0] - 2485.791828834007 y[1]
   - 2485.791828834007 y[2] + omega >= 0
 R17: - 3543.093466389251 y[0] + 2222.837976038461 y[1]
   - 3543.093466389251 y[2] + omega >= 0
 R18: 2548.986730219688 y[0] - 1303.905884307388 y[1]
   - 1303.905884307388 y[2] + omega >= 1245.0808459123
 R19: 2548.986730219688 y[0] - 1303.905884307388 y[1]
   - 1303.905884307388 y[2] + omega >= 1245.0808459123
 R20: 2548.986730219688 y[0] - 1303.905884307388 y[1]
   - 1303.905884307388 y[2] + omega >= 1245.0808459123
 R21: 2548.986730219688 y[0] - 1303.905884307388 y[1]
   - 1303.905884307388 y[2] + omega >= 1245.0808459123
 R22: 2548.986730219688 y[0] - 1303.905884307388 y[1]
   - 1303.905884307388 y[2] + omega >= 1245.0808459123
 R23: 2548.986730219688 y[0] - 1303.905884307388 y[1]
   - 1303.905884307388 y[2] + omega >= 1245.0808459123
 R24: 2548.986730219688 y[0] - 1303.905884307388 y[1]
   - 1303.905884307388 y[2] + omega >= 1245.0808459123
 R25: 2548.986730219688 y[0] - 1303.905884307388 y[1]
   - 1303.905884307388 y[2] + omega >= 1245.0808459123
 R26: 2548.986730219688 y[0] - 1303.905884307388 y[1]
   - 1303.905884307388 y[2] + omega >= 1245.0808459123
 R27: 2548.986730219688 y[0] - 1303.905884307388 y[1]
   - 1303.905884307388 y[2] + omega >= 1245.0808459123
 R28: 2548.986730219688 y[0] - 1303.905884307388 y[1]
   - 1303.905884307388 y[2] + omega >= 1245.0808459123
 R29: 2548.986730219688 y[0] - 1303.905884307388 y[1]
   - 1303.905884307388 y[2] + omega >= 1245.0808459123
 R30: 2548.986730219688 y[0] - 1303.905884307388 y[1]
   - 1303.905884307388 y[2] + omega >= 1245.0808459123
 R31: 2548.986730219688 y[0] - 1303.905884307388 y[1]
   - 1303.905884307388 y[2] + omega >= 1245.0808459123
 R32: 2548.986730219688 y[0] - 1303.905884307388 y[1]
   - 1303.905884307388 y[2] + omega >= 1245.0808459123
 R33: 2548.986730219688 y[0] - 1303.905884307388 y[1]
   - 1303.905884307388 y[2] + omega >= 1245.0808459123
 R34: 2548.986730219688 y[0] - 1303.905884307388 y[1]
   - 1303.905884307388 y[2] + omega >= 1245.0808459123
 R35: 2548.986730219688 y[0] - 1303.905884307388 y[1]
   - 1303.905884307388 y[2] + omega >= 1245.0808459123
 R36: 2548.986730219688 y[0] - 1303.905884307388 y[1]
   - 1303.905884307388 y[2] + omega >= 1245.0808459123
 R37: 2548.986730219688 y[0] - 1303.905884307388 y[1]
   - 1303.905884307388 y[2] + omega >= 1245.0808459123
 R38: 2548.986730219688 y[0] - 1303.905884307388 y[1]
   - 1303.905884307388 y[2] + omega >= 1245.0808459123
 R39: 2548.986730219688 y[0] - 1303.905884307388 y[1]
   - 1303.905884307388 y[2] + omega >= 1245.0808459123
 R40: 2548.986730219688 y[0] - 1303.905884307388 y[1]
   - 1303.905884307388 y[2] + omega >= 1245.0808459123
 R41: 2548.986730219688 y[0] - 1303.905884307388 y[1]
   - 1303.905884307388 y[2] + omega >= 1245.0808459123
 R42: 2548.986730219688 y[0] - 1303.905884307388 y[1]
   - 1303.905884307388 y[2] + omega >= 1245.0808459123
 R43: 2548.986730219688 y[0] - 1303.905884307388 y[1]
   - 1303.905884307388 y[2] + omega >= 1245.0808459123
 R44: 2548.986730219688 y[0] - 1303.905884307388 y[1]
   - 1303.905884307388 y[2] + omega >= 1245.0808459123
 R45: 2548.986730219688 y[0] - 1303.905884307388 y[1]
   - 1303.905884307388 y[2] + omega >= 1245.0808459123
 R46: 2548.986730219688 y[0] - 1303.905884307388 y[1]
   - 1303.905884307388 y[2] + omega >= 1245.0808459123
 R47: 2548.986730219688 y[0] - 1303.905884307388 y[1]
   - 1303.905884307388 y[2] + omega >= 1245.0808459123
 R48: 2548.986730219688 y[0] - 1303.905884307388 y[1]
   - 1303.905884307388 y[2] + omega >= 1245.0808459123
Bounds
Binaries
 x[0,0] x[0,1] x[0,2] x[1,0] x[1,1] x[1,2] x[2,0] x[2,1] x[2,2] y[0] y[1]
 y[2]
End
